# Created by GDIS version 0.90.0
SystemLabel      MgO-3x3x1-2V
#----------------------------------------------------------
#                       Crystal flags
#----------------------------------------------------------
NumberOfAtoms    18
NumberOfSpecies  2
%block ChemicalSpeciesLabel
    1   12  Mg
    2    8  O
#    3   -8  VO
%endblock ChemicalSpeciesLabel
LatticeConstant 1.0 Ang
%block LatticeParameters
   9.838267618    9.838267618   50.6060000000  90 90 120
%endblock LatticeParameters
AtomicCoordinatesFormat Fractional
%block AtomicCoordinatesAndAtomicSpecies
         0.111000000    0.222000000    0.500000000    1  1  Mg
         0.222000000    0.111000000    0.500000000    2  17  O
         0.111000000    0.555333000    0.500000000    1  2  Mg
         0.111000000    0.888667000    0.500000000    1  3  Mg
         0.444333000    0.222000000    0.500000000    1  4  Mg
         0.444333000    0.555333000    0.500000000    1  5  Mg
         0.444333000    0.888667000    0.500000000    1  6  Mg
         0.777667000    0.222000000    0.500000000    1  7  Mg
         0.777667000    0.555333000    0.500000000    1  8  Mg
         0.777667000    0.888667000    0.500000000    1  9  Mg
         0.555333000    0.777667000    0.500000000    2  18  O
         0.222000000    0.444333000    0.500000000    2  10  O
         0.222000000    0.777667000    0.500000000    2  11  O
         0.555333000    0.111000000    0.500000000    2  12  O
         0.555333000    0.444333000    0.500000000    2  13  O
         0.888667000    0.111000000    0.500000000    2  14  O
         0.888667000    0.444333000    0.500000000    2  15  O
         0.888667000    0.777667000    0.500000000    2  16  O
%endblock AtomicCoordinatesAndAtomicSpecies
#----------------------------------------------------------
#                       Basis flags
#----------------------------------------------------------
%block PAO.BasisSizes
Mg  DZP
O   DZP
%endblock PAO.BasisSizes
%block kgrid_Monkhorst_Pack
10  0    0     0.0
0   10    0     0.0
0   0    1     0.0
%endblock kgrid_Monkhorst_Pack
MeshCutoff 		300  Ry
XC.functional 		GGA
XC.authors 		revPBE
SpinPolarized           .true.
#----------------------------------------------------------
#                       DM flags
#----------------------------------------------------------
DM.MixingWeight 	0.20
DM.NumberPulay          4
DM.UseSaveDM            .true.
DM.Tolerance 		1.0d-4
MaxSCFIterations 	150
#----------------------------------------------------------
#                       MD flags
#----------------------------------------------------------
MD.MaxCGDispl           0.1 Bohr
#MD.TypeOfRun            CG
MD.VariableCell         .False.
MD.NumCGsteps           200
MD.MaxForceTol          0.04000 eV/Ang
MD.UseSaveXV            .true.
#----------------------------------------------------------
#                       Electronic flags
#----------------------------------------------------------
ElectronicTemperature   5 K
NumberOfEigenStates     800
UseNewDiagk            .false.
Diag.ParallelOverK     .false.
LongOutput
WriteMDHistory         .true.
WriteMDXmol            .true.
#COOP.Write .true.
BandLinesScale ReciprocalLatticeVectors
%block BandLines
   1  0.000 0.000 0.000  \Gamma
 200  0.500 0.000 0.000  M
 200  0.333 0.333 0.000  K
 200  0.000 0.000 0.000  \Gamma
%endblock BandLines
Eigenvectors         True
MD.TypeOfRun           LUA
MD.FCfirst             1
MD.FClast              2
MD.FCdispl             0.0400000000  Bohr
Lua.Script          force_constant.lua
