# Created by GDIS version 0.90.0
SystemLabel      MgO-3x3x1-2V

#----------------------------------------------------------
#                       Crystal flags
#----------------------------------------------------------
NumberOfAtoms    2

NumberOfSpecies  2

%block ChemicalSpeciesLabel
    1   12  Mg
    2    8  O
#    3   -8  VO
%endblock ChemicalSpeciesLabel

LatticeConstant 1.0 Ang
%block LatticeParameters
   3.279422539    3.279422539   50.6060000000  90 90 120
%endblock LatticeParameters

AtomicCoordinatesFormat Fractional
%block AtomicCoordinatesAndAtomicSpecies
         0.333333333    0.666666666    0.500000000    1  1  Mg
         0.666666666    0.333333333    0.500000000    2  17  O
%endblock AtomicCoordinatesAndAtomicSpecies
#----------------------------------------------------------
#                       Basis flags
#----------------------------------------------------------
%block PAO.BasisSizes
Mg  DZP
O   DZP
%endblock PAO.BasisSizes

%block kgrid_Monkhorst_Pack
3   0    0     0.0
0   3    0     0.0
0   0    1     0.0
%endblock kgrid_Monkhorst_Pack  
MeshCutoff 		300  Ry
XC.functional 		GGA
XC.authors 		revPBE
SpinPolarized           .true.
#----------------------------------------------------------
#                       DM flags
#----------------------------------------------------------
DM.MixingWeight 	0.20
DM.NumberPulay          4 
DM.UseSaveDM            .true.
DM.Tolerance 		1.0d-4
MaxSCFIterations 	150
#----------------------------------------------------------
#                       MD flags
#----------------------------------------------------------
MD.MaxCGDispl           0.1 Bohr
#MD.TypeOfRun            CG
MD.VariableCell         .False.
MD.NumCGsteps           200
MD.MaxForceTol          0.04000 eV/Ang
MD.UseSaveXV            .true.
#----------------------------------------------------------
#                       Electronic flags
#----------------------------------------------------------
ElectronicTemperature   5 K
NumberOfEigenStates     800
UseNewDiagk            .false.
Diag.ParallelOverK     .false.
LongOutput            
WriteMDHistory         .true.
WriteMDXmol            .true.
#COOP.Write .true.

BandLinesScale ReciprocalLatticeVectors
%block BandLines
   1  0.000 0.000 0.000  \Gamma
 200  0.500 0.000 0.000  M
 200  0.333 0.333 0.000  K
 200  0.000 0.000 0.000  \Gamma
%endblock BandLines
Eigenvectors         True

MD.TypeOfRun           FC
MD.FCfirst             1
MD.FClast              2
MD.FCdispl             0.0400000000  Bohr
