SystemName                                                                                                                                                                # default value
SystemLabel     MgO-3x3x1-2V                                                                    
NumberOfAtoms              2
LatticeConstant          1.889726878           Bohr
# above item originally: LatticeConstant          1.000000000     Ang       
%block LatticeParameters
%block LatticeParameters
    3.279422539    3.279422539   50.6060000000  90 90 120
AtomicCoordinatesFormat     Fractional                                                                      
%block AtomicCoordinatesAndAtomicSpecies
          0.333333333    0.666666666    0.500000000    1  1  Mg
          0.666666666    0.333333333    0.500000000    2  17  O
SuperCell_1         0     # default value
SuperCell_2         0     # default value
SuperCell_3         0     # default value
%block BandLines
LatticeConstant          1.889726878           Bohr
# above item originally: LatticeConstant          1.000000000     Ang       
BandLinesScale     ReciprocalLatticeVectors                                                        
%block BandLines
    1  0.000 0.000 0.000  \Gamma
  200  0.500 0.000 0.000  M
  200  0.333 0.333 0.000  K
  200  0.000 0.000 0.000  \Gamma
%endblock BandLines
Eigenvectors              T
Intensities              F     # default value
Vibra.FC     MgO-3x3x1-2V.FC     # default value
SystemLabel     MgO-3x3x1-2V                                                                    
