############### Chemical info ###############
NumberOfSpecies        1
%block ChemicalSpeciesLabel
  1  26  Fe
%endblock ChemicalSpeciesLabel
PAO.EnergyShift  100 meV
PAO.SplitNorm      0.15
%block PAO.Basis
 Fe   2
   n=4   0   2   P
    0.0   0.0
   n=3   2   2
    0.0   0.0
%endblock PAO.Basis
xc.functional         GGA
xc.authors            PBE
############## Geomtrical info ##############
SystemName   fe2DFM
SystemLabel  fe2DFM
LatticeConstant  1.0d0 Ang
%block LatticeVectors
  20.000000000   0.000000000    0.000000000
   0.000000000  20.000000000    0.000000000
   0.000000000   0.000000000   20.000000000
%endblock LatticeVectors
NumberOfAtoms       2
AtomicCoordinatesFormat   Ang
%block AtomicCoordinatesAndAtomicSpecies
    0.00000   0.00000   0.00000  1
    2.50000   0.00000   0.00000  1
%endblock AtomicCoordinatesAndAtomicSpecies
#UseSaveData     T
#SolutionMethod  diagon
%block DM.InitSpin
  1  +3.   0.  0.
  2  +3.   0.  0.
%endblock DM.InitSpin
#%block kgrid_Monkhorst_Pack
#  11   0   0   0.0
#   0  11   0   0.0
#   0   0   1   0.0
#%endblock kgrid_Monkhorst_Pack
 ################ SCF options #############
#ElectronicTemperature   0.010 eV
MaxSCFIterations        10 #300
DM.MixingWeight         0.01 #0.001
MeshCutoff              300.0 Ry
DM.Tolerance            0.000004
DM.NumberPulay          7
DM.UseSaveDM            T
DM.History.Depth         0
#DM.MixSCF1              F
DM.NumberKick           25
#MixHamiltonian          true
#SCF.H.Converge          true
#SCF.H.Tolerance         0.003 eV
#Diag.DivideAndConquer F
#Diag.Use2D F
 ################ MD options #############
MD.TypeOfRun        LUA
MD.NumCGsteps       0
#MD.MaxCGDispl       0.1 Ang
#MD.MaxForceTol      0.01 eV/Ang
#WriteCoorStep       true
#WriteForces         true
 ################ DOS options #############
#WriteMullikenPop     1
#MullikenInSCF T
Spin                 collinear
Lua.Script conv_meshcutoff.lua
